benchmarks/VRPTW/TSPTW/solution/n150w20.004.txt.solution
1 49 20 3 72 56 7 124 26 118 100 143 94 23 104 38 15 149 50 84 115 46 87 60 79 125 144 140 108 137 61 130 150 129 24 114 134 64 106 101 25 98 11 103 4 95 86 43 81 109 33 145 138 111 30 93 13 54 136 19 12 63 128 132 88 131 53 92 32 28 59 146 48 80 107 97 45 62 2 102 67 52 21 58 120 89 122 83 17 39 90 105 31 116 133 148 57 9 68 82 76 71 65 147 42 91 77 29 121 139 123 117 70 35 16 37 8 47 135 112 69 41 110 126 44 34 5 113 73 36 14 142 74 51 141 66 27 18 96 127 10 85 78 40 6 119 75 55 151 22 99 
873
